20 63
1 5 1
1 6 1
1 8 1
1 10 1
1 12 1
1 13 1
2 5 1
2 6 1
2 7 1
2 8 1
2 10 1
2 11 1
2 12 1
2 17 1
2 20 1
3 5 1
3 6 1
3 7 1
3 8 1
3 9 1
3 11 1
3 14 1
4 5 1
4 7 1
4 9 1
4 12 1
5 6 1
5 7 1
5 8 1
5 9 1
5 10 1
5 13 1
5 14 1
5 16 1
5 17 1
5 19 1
6 9 1
6 12 1
6 13 1
6 18 1
6 20 1
7 10 1
8 11 1
8 13 1
9 11 1
9 14 1
10 14 1
10 15 1
10 16 1
10 19 1
11 15 1
12 15 1
12 16 1
12 17 1
12 18 1
12 19 1
13 15 1
13 18 1
13 20 1
14 18 1
14 20 1
16 17 1
16 19 1
